0 56792 
1 55778 
2 55584 
3 55272 
4 55016 
5 53482 
6 50536 
7 50356 
8 49988 
9 48818 
10 48792 
11 47922 
12 47128 
13 45878 
14 45478 
15 44188 
16 43742 
17 43710 
18 38414 
19 37914 
20 37790 
21 36450 
22 35514 
23 34876 
24 34700 
25 34330 
26 34074 
27 33074 
28 32968 
29 29328 
30 29044 
31 28950 
32 28870 
33 27974 
34 27764 
35 27650 
36 27640 
37 24562 
38 23480 
39 23460 
40 23244 
41 22484 
42 21028 
43 20692 
44 20048 
45 18530 
46 18038 
47 17350 
48 16382 
49 15950 
50 13542 
51 13014 
52 12698 
53 11438 
54 11398 
55 11080 
56 10900 
57 10492 
58 10102 
59 10102 

